results_rootrelaxation/bin012_050_020.srr.sol
solution status: optimal solution found
objective value:                                    0
_var256_                            0.173164017405212 	(obj:0)
_var287_                           0.0772577923807811 	(obj:0)
_var289_                           0.0322351478554234 	(obj:0)
_var295_                            0.232750199804639 	(obj:0)
_var327_                            0.206997602344379 	(obj:0)
_var378_                            0.162862978421095 	(obj:0)
_var578_                            0.252819465411598 	(obj:0)
_var614_                           0.0364976467454005 	(obj:0)
_var625_                           0.0804546665482648 	(obj:0)
_var663_                            0.212769736257877 	(obj:0)
_var684_                            0.213213746558917 	(obj:0)
_var700_                            0.167747091732527 	(obj:0)
_var703_                            0.321197051771602 	(obj:0)
_var705_                            0.198561406624633 	(obj:0)
_var706_                          0.00808098747891284 	(obj:0)
_var707_                            0.420300150963505 	(obj:0)
_var709_                            0.288606695675337 	(obj:0)
_var717_                            0.190214012965101 	(obj:0)
_var719_                           0.0883580499067552 	(obj:0)
_var721_                            0.220317911375553 	(obj:0)
_var722_                            0.340911109137729 	(obj:0)
_var724_                            0.335582985525263 	(obj:0)
_var731_                            0.391883491697004 	(obj:0)
_var735_                           0.0527484237634301 	(obj:0)
_var736_                            0.224846816446143 	(obj:0)
_var737_                            0.509901429713167 	(obj:0)
_var738_                           0.0542580587869643 	(obj:0)
_var739_                            0.148654648787856 	(obj:0)
_var743_                            0.413817600568324 	(obj:0)
_var747_                            0.242962436728529 	(obj:0)
_var748_                            0.467809253174672 	(obj:0)
_var751_                           0.0769025841399557 	(obj:0)
_var752_                            0.201669478731907 	(obj:0)
_var753_                            0.232572595684222 	(obj:0)
_var754_                           0.0896012787496695 	(obj:0)
_var756_                            0.294556433709259 	(obj:0)
_var760_                            0.271290293934819 	(obj:0)
_var762_                            0.035343219962699 	(obj:0)
_var763_                           0.0849835716188625 	(obj:0)
_var766_                            0.240475979042717 	(obj:0)
_var767_                            0.325193144480949 	(obj:0)
_var772_                           0.0176716099813598 	(obj:0)
_var775_                           0.0646478998312757 	(obj:0)
_var778_                           0.0666903472160549 	(obj:0)
_var779_                            0.113045022644526 	(obj:0)
_var782_                            0.383269691856852 	(obj:0)
_var783_                            0.275286386644162 	(obj:0)
_var785_                            0.462125921321381 	(obj:0)
_var786_                           0.0222893171121616 	(obj:0)
_var788_                           0.0136755172720049 	(obj:0)
_var794_                           0.0653583163129402 	(obj:0)
_var795_                           0.0484859248734561 	(obj:0)
_var799_                            0.139508036586446 	(obj:0)
_var800_                           0.0163395790782401 	(obj:0)
_var801_                            0.148921054968477 	(obj:0)
_var802_                            0.210993695053726 	(obj:0)
_var805_                           0.0815202912707524 	(obj:0)
_var806_                          0.000799218541872232 	(obj:0)
_var809_                           0.0234437438948562 	(obj:0)
_var810_                           0.0976822662285756 	(obj:0)
_var811_                           0.0902228931711182 	(obj:0)
_var814_                           0.0222893171121616 	(obj:0)
_var815_                           0.0153627564159504 	(obj:0)
