results_rootrelaxation/bin012_050_020.srr.log
SCIP version 8.0.3.5 [precision: 8 byte] [memory: block] [mode: optimized] [LP solver: Soplex 6.0.1.3] [GitHash: 438792519e]
Copyright (c) 2002-2023 Zuse Institute Berlin (ZIB)

External libraries: 
  Readline 8.1         GNU library for command line editing (gnu.org/s/readline)
  Soplex 6.0.1.3       Linear Programming Solver developed at Zuse Institute Berlin (soplex.zib.de) [GitHash: 713be0fe]
  CppAD 20180000.0     Algorithmic Differentiation of C++ algorithms developed by B. Bell (github.com/coin-or/CppAD)
  ZLIB 1.2.11          General purpose compression library by J. Gailly and M. Adler (zlib.net)
  bliss 0.77           Computing Graph Automorphism Groups by T. Junttila and P. Kaski (www.tcs.hut.fi/Software/bliss/)

user parameter file <scip.set> not found - using default parameters

srr/relaxation = TRUE

read problem <instances/bin012_050_020.srr>
============

Original problem: 
original problem has 0 variables (0 bin, 0 int, 0 impl, 0 cont) and 77 constraints

presolving:
presolving (1 rounds: 1 fast, 1 medium, 1 exhaustive):
 0 deleted vars, 0 deleted constraints, 0 added constraints, 0 tightened bounds, 0 added holes, 0 changed sides, 0 changed coefficients
 0 implications, 0 cliques
presolved problem has 0 variables (0 bin, 0 int, 0 impl, 0 cont) and 77 constraints
     77 constraints of type <linear>
Presolving Time: 0.00

 time | node  | left  |LP iter|LP it/n|mem/heur|mdpt |vars |cons |rows |cuts |sepa|confs|strbr|  dualbound   | primalbound  |  gap   | compl. 
  0.0s|     1 |     0 |     1 |     - |   710k |   0 |   1 |  77 |  77 |   0 |  0 |   0 |   0 |      --      |      --      |    Inf | unknown
r 0.1s|     1 |     0 |   971 |     - |simplero|   0 | 673 |  77 |  77 |   0 |  0 |   0 |   0 |      --      | 1.174870e+01 |    Inf | unknown
r 0.1s|     1 |     0 |  1010 |     - |simplero|   0 | 684 |  77 |  77 |   0 |  0 |   0 |   0 |      --      | 1.033411e+01 |    Inf | unknown
r 0.1s|     1 |     0 |  1054 |     - |simplero|   0 | 695 |  77 |  77 |   0 |  0 |   0 |   0 |      --      | 8.896469e+00 |    Inf | unknown
r 0.1s|     1 |     0 |  1114 |     - |simplero|   0 | 706 |  77 |  77 |   0 |  0 |   0 |   0 |      --      | 6.916067e+00 |    Inf | unknown
r 0.1s|     1 |     0 |  1164 |     - |simplero|   0 | 717 |  77 |  77 |   0 |  0 |   0 |   0 |      --      | 5.591057e+00 |    Inf | unknown
r 0.1s|     1 |     0 |  1208 |     - |simplero|   0 | 728 |  77 |  77 |   0 |  0 |   0 |   0 |      --      | 4.623703e+00 |    Inf | unknown
r 0.1s|     1 |     0 |  1273 |     - |simplero|   0 | 739 |  77 |  77 |   0 |  0 |   0 |   0 |      --      | 3.240572e+00 |    Inf | unknown
r 0.1s|     1 |     0 |  1298 |     - |simplero|   0 | 750 |  77 |  77 |   0 |  0 |   0 |   0 |      --      | 2.664255e+00 |    Inf | unknown
r 0.1s|     1 |     0 |  1314 |     - |simplero|   0 | 750 |  77 |  77 |   0 |  0 |   0 |   0 |      --      | 2.490557e+00 |    Inf | unknown
r 0.1s|     1 |     0 |  1319 |     - |simplero|   0 | 750 |  77 |  77 |   0 |  0 |   0 |   0 |      --      | 2.476927e+00 |    Inf | unknown
r 0.1s|     1 |     0 |  1342 |     - |simplero|   0 | 761 |  77 |  77 |   0 |  0 |   0 |   0 |      --      | 2.051591e+00 |    Inf | unknown
r 0.1s|     1 |     0 |  1352 |     - |simplero|   0 | 761 |  77 |  77 |   0 |  0 |   0 |   0 |      --      | 1.977284e+00 |    Inf | unknown
r 0.1s|     1 |     0 |  1397 |     - |simplero|   0 | 772 |  77 |  77 |   0 |  0 |   0 |   0 |      --      | 1.268543e+00 |    Inf | unknown
r 0.1s|     1 |     0 |  1403 |     - |simplero|   0 | 772 |  77 |  77 |   0 |  0 |   0 |   0 |      --      | 1.254977e+00 |    Inf | unknown
 time | node  | left  |LP iter|LP it/n|mem/heur|mdpt |vars |cons |rows |cuts |sepa|confs|strbr|  dualbound   | primalbound  |  gap   | compl. 
r 0.1s|     1 |     0 |  1437 |     - |simplero|   0 | 783 |  77 |  77 |   0 |  0 |   0 |   0 |      --      | 7.857888e-01 |    Inf | unknown
r 0.1s|     1 |     0 |  1448 |     - |simplero|   0 | 783 |  77 |  77 |   0 |  0 |   0 |   0 |      --      | 7.074829e-01 |    Inf | unknown
r 0.1s|     1 |     0 |  1449 |     - |simplero|   0 | 783 |  77 |  77 |   0 |  0 |   0 |   0 |      --      | 7.073851e-01 |    Inf | unknown
r 0.1s|     1 |     0 |  1476 |     - |simplero|   0 | 794 |  77 |  77 |   0 |  0 |   0 |   0 |      --      | 3.612583e-01 |    Inf | unknown
r 0.1s|     1 |     0 |  1478 |     - |simplero|   0 | 794 |  77 |  77 |   0 |  0 |   0 |   0 |      --      | 3.591905e-01 |    Inf | unknown
r 0.1s|     1 |     0 |  1495 |     - |simplero|   0 | 805 |  77 |  77 |   0 |  0 |   0 |   0 |      --      | 1.068475e-01 |    Inf | unknown
r 0.1s|     1 |     0 |  1499 |     - |simplero|   0 | 805 |  77 |  77 |   0 |  0 |   0 |   0 |      --      | 9.298395e-02 |    Inf | unknown
r 0.1s|     1 |     0 |  1509 |     - |simplero|   0 | 816 |  77 |  77 |   0 |  0 |   0 |   0 |      --      | 0.000000e+00 |    Inf | unknown
  0.1s|     1 |     0 |  1509 |     - |  3971k |   0 | 816 |  77 |  77 |   0 |  0 |   0 |   0 | 0.000000e+00 | 0.000000e+00 |   0.00%| unknown
  0.1s|     1 |     0 |  1509 |     - |  3971k |   0 | 816 |  77 |  77 |   0 |  0 |   0 |   0 | 0.000000e+00 | 0.000000e+00 |   0.00%| unknown

SCIP Status        : problem is solved [optimal solution found]
Solving Time (sec) : 0.08
Solving Nodes      : 1
Primal Bound       : +0.00000000000000e+00 (22 solutions)
Dual Bound         : +0.00000000000000e+00
Gap                : 0.00 %

written transformed problem to file <results_rootrelaxation/bin012_050_020.srr.lp>
written transformed problem to file <results_rootrelaxation/bin012_050_020.srr.cip>


SCIP version 8.0.3.5 [precision: 8 byte] [memory: block] [mode: optimized] [LP solver: Soplex 6.0.1.3] [GitHash: 438792519e]
Copyright (c) 2002-2023 Zuse Institute Berlin (ZIB)

External libraries: 
  Readline 8.1         GNU library for command line editing (gnu.org/s/readline)
  Soplex 6.0.1.3       Linear Programming Solver developed at Zuse Institute Berlin (soplex.zib.de) [GitHash: 713be0fe]
  CppAD 20180000.0     Algorithmic Differentiation of C++ algorithms developed by B. Bell (github.com/coin-or/CppAD)
  ZLIB 1.2.11          General purpose compression library by J. Gailly and M. Adler (zlib.net)
  bliss 0.77           Computing Graph Automorphism Groups by T. Junttila and P. Kaski (www.tcs.hut.fi/Software/bliss/)

user parameter file <scip.set> not found - using default parameters

srr/relaxation = TRUE

read problem <instances/bin012_050_020.srr>
============

Original problem: 
original problem has 0 variables (0 bin, 0 int, 0 impl, 0 cont) and 77 constraints

presolving:
presolving (1 rounds: 1 fast, 1 medium, 1 exhaustive):
 0 deleted vars, 0 deleted constraints, 0 added constraints, 0 tightened bounds, 0 added holes, 0 changed sides, 0 changed coefficients
 0 implications, 0 cliques
presolved problem has 0 variables (0 bin, 0 int, 0 impl, 0 cont) and 77 constraints
     77 constraints of type <linear>
Presolving Time: 0.00

 time | node  | left  |LP iter|LP it/n|mem/heur|mdpt |vars |cons |rows |cuts |sepa|confs|strbr|  dualbound   | primalbound  |  gap   | compl. 
  0.0s|     1 |     0 |     1 |     - |   710k |   0 |   1 |  77 |  77 |   0 |  0 |   0 |   0 |      --      |      --      |    Inf | unknown
r 0.0s|     1 |     0 |   971 |     - |simplero|   0 | 673 |  77 |  77 |   0 |  0 |   0 |   0 |      --      | 1.174870e+01 |    Inf | unknown
r 0.0s|     1 |     0 |  1010 |     - |simplero|   0 | 684 |  77 |  77 |   0 |  0 |   0 |   0 |      --      | 1.033411e+01 |    Inf | unknown
r 0.1s|     1 |     0 |  1054 |     - |simplero|   0 | 695 |  77 |  77 |   0 |  0 |   0 |   0 |      --      | 8.896469e+00 |    Inf | unknown
r 0.1s|     1 |     0 |  1114 |     - |simplero|   0 | 706 |  77 |  77 |   0 |  0 |   0 |   0 |      --      | 6.916067e+00 |    Inf | unknown
r 0.1s|     1 |     0 |  1164 |     - |simplero|   0 | 717 |  77 |  77 |   0 |  0 |   0 |   0 |      --      | 5.591057e+00 |    Inf | unknown
r 0.1s|     1 |     0 |  1208 |     - |simplero|   0 | 728 |  77 |  77 |   0 |  0 |   0 |   0 |      --      | 4.623703e+00 |    Inf | unknown
r 0.1s|     1 |     0 |  1273 |     - |simplero|   0 | 739 |  77 |  77 |   0 |  0 |   0 |   0 |      --      | 3.240572e+00 |    Inf | unknown
r 0.1s|     1 |     0 |  1298 |     - |simplero|   0 | 750 |  77 |  77 |   0 |  0 |   0 |   0 |      --      | 2.664255e+00 |    Inf | unknown
r 0.1s|     1 |     0 |  1314 |     - |simplero|   0 | 750 |  77 |  77 |   0 |  0 |   0 |   0 |      --      | 2.490557e+00 |    Inf | unknown
r 0.1s|     1 |     0 |  1319 |     - |simplero|   0 | 750 |  77 |  77 |   0 |  0 |   0 |   0 |      --      | 2.476927e+00 |    Inf | unknown
r 0.1s|     1 |     0 |  1342 |     - |simplero|   0 | 761 |  77 |  77 |   0 |  0 |   0 |   0 |      --      | 2.051591e+00 |    Inf | unknown
r 0.1s|     1 |     0 |  1352 |     - |simplero|   0 | 761 |  77 |  77 |   0 |  0 |   0 |   0 |      --      | 1.977284e+00 |    Inf | unknown
r 0.1s|     1 |     0 |  1397 |     - |simplero|   0 | 772 |  77 |  77 |   0 |  0 |   0 |   0 |      --      | 1.268543e+00 |    Inf | unknown
r 0.1s|     1 |     0 |  1403 |     - |simplero|   0 | 772 |  77 |  77 |   0 |  0 |   0 |   0 |      --      | 1.254977e+00 |    Inf | unknown
 time | node  | left  |LP iter|LP it/n|mem/heur|mdpt |vars |cons |rows |cuts |sepa|confs|strbr|  dualbound   | primalbound  |  gap   | compl. 
r 0.1s|     1 |     0 |  1437 |     - |simplero|   0 | 783 |  77 |  77 |   0 |  0 |   0 |   0 |      --      | 7.857888e-01 |    Inf | unknown
r 0.1s|     1 |     0 |  1448 |     - |simplero|   0 | 783 |  77 |  77 |   0 |  0 |   0 |   0 |      --      | 7.074829e-01 |    Inf | unknown
r 0.1s|     1 |     0 |  1449 |     - |simplero|   0 | 783 |  77 |  77 |   0 |  0 |   0 |   0 |      --      | 7.073851e-01 |    Inf | unknown
r 0.1s|     1 |     0 |  1476 |     - |simplero|   0 | 794 |  77 |  77 |   0 |  0 |   0 |   0 |      --      | 3.612583e-01 |    Inf | unknown
r 0.1s|     1 |     0 |  1478 |     - |simplero|   0 | 794 |  77 |  77 |   0 |  0 |   0 |   0 |      --      | 3.591905e-01 |    Inf | unknown
r 0.1s|     1 |     0 |  1495 |     - |simplero|   0 | 805 |  77 |  77 |   0 |  0 |   0 |   0 |      --      | 1.068475e-01 |    Inf | unknown
r 0.1s|     1 |     0 |  1499 |     - |simplero|   0 | 805 |  77 |  77 |   0 |  0 |   0 |   0 |      --      | 9.298395e-02 |    Inf | unknown
r 0.1s|     1 |     0 |  1509 |     - |simplero|   0 | 816 |  77 |  77 |   0 |  0 |   0 |   0 |      --      | 0.000000e+00 |    Inf | unknown
  0.1s|     1 |     0 |  1509 |     - |  3971k |   0 | 816 |  77 |  77 |   0 |  0 |   0 |   0 | 0.000000e+00 | 0.000000e+00 |   0.00%| unknown
  0.1s|     1 |     0 |  1509 |     - |  3971k |   0 | 816 |  77 |  77 |   0 |  0 |   0 |   0 | 0.000000e+00 | 0.000000e+00 |   0.00%| unknown

SCIP Status        : problem is solved [optimal solution found]
Solving Time (sec) : 0.07
Solving Nodes      : 1
Primal Bound       : +0.00000000000000e+00 (22 solutions)
Dual Bound         : +0.00000000000000e+00
Gap                : 0.00 %

written transformed problem to file <results_rootrelaxation/bin012_050_020.srr.lp>
written transformed problem to file <results_rootrelaxation/bin012_050_020.srr.cip>

written solution information to file <results_rootrelaxation/bin012_050_020.srr.sol>



